 $contrl ispher=1 $end
 $basis  gbasis=accd $end
