 $contrl ispher=1 $end
 $basis  gbasis=acct $end
