 $contrl ispher=1 $end
 $basis gbasis=ccd $end
