 $contrl coord=unique icharg=0 maxit=200 $end
 $scf diis=.t. soscf=.f. fdiff=.f. damp=.f. shift=.f. $end
 $scf swdiis=0.000 ethrsh=1.5 $end
 $system timlim=999999100 mwords=500 kdiag=4 $end
