 $contrl tddft=mrsf $end
 $tddft nstate=6 tammd=.t. mult=1 $end
