 $contrl tddft=spnflp $end
 $tddft nstate=10 iroot=1 tammd=.t. mult=1 mrsfs=.t. $end
