 $contrl runtyp=conical $end
 $conicl opttyp=penalty ixroot(1)=1,2 $end
 $statpt nstep=3000 $end
 $tddft iroot=1 $end
