 $contrl dfttyp=USElibxc $end
 $libxc functional=r2scan $end
