 $contrl scftyp=rohf mult=3 $end
 $scf couple=.t. alpha(1)=0.5,0.5,0.5 beta(1)=0.5,0.5,0.5 $end
