 $contrl tddft=excite $end
 $tddft nstate=30 mult=1 $end
