 $contrl dfttyp=USElibxc $end
 $libxc functional=APF $end
