 $contrl dfttyp=USElibxc $end
 $libxc functional=camhb3lyp $end
