 $contrl ispher=1 $end
 $basis gbasis=cct $end
