 $contrl runtyp=energy $end
 $tddft iroot=1 $end
