 $contrl coord=unique icharg=0 maxit=200 $end
 $scf diis=.t. ethrsh=2.0 swdiis=0.005 $end
 $scf soscf=.f. fdiff=.f. damp=.f. shift=.f. $end
 $system timlim=999999100 mwords=500 kdiag=4 $end
