 $contrl coord=unique icharg=0 maxit=200 $end
 $scf dirscf=.t. diis=.t. soscf=.f. fdiff=.f. damp=.f. shift=.f. $end
 $system timlim=999999100 mwords=500 kdiag=4 $end
