 $contrl dfttyp=USElibxc $end
 $libxc functional=hse06 $end
