 $contrl tddft=spnflp $end
 $tddft nstate=10 tammd=.t. mult=1 mrsft=.t. $end
