 $guess guess=moread $end
 $dft switch=0 swoff=0 $end
 $contrl tddft=mrsf $end
 $tddft nstate=10 iroot=1 tammd=.t. mult=1 $end
