 $contrl tddft=mrsf $end
 $tddft nstate=30 tammd=.t. mult=1 $end
