 $contrl dfttyp=USElibxc $end
 $libxc functional=olyp $end
