 $contrl runtyp=conical $end
 $conicl opttyp=penalty ixroot(1)=2,3 $end
 $statpt nstep=3000 $end
 $tddft iroot=2 $end
