 $contrl runtyp=optimize $end
 $statpt nstep=3000 $end
 $tddft iroot=1 $end
