 $contrl dfttyp=USElibxc $end
 $libxc functional=qtp17 $end
