 $contrl dfttyp=USElibxc $end
 $libxc functional=r2scan01 $end
