 $contrl tddft=spnflp $end
 $tddft nstate=30 tammd=.t. mult=1 $end
