 $guess guess=moread $end
 $dft switch=0 swoff=0 $end
 $contrl tddft=spnflp $end
 $tddft nstate=10 tammd=.t. mult=1 $end
