 $contrl tddft=excite $end
 $tddft nstate=30 mult=3 $end
